\ unnamed

Maximize
  2 x + 2 y + 2 z + [ x ^ 2 ] / 2
Subject To
  c0: x + y = 1
  c1: x + 5 y + 2 z <= 10
  qc0: x + y + [ x ^ 2 - 2 x * y + 3 y ^ 2 ] <= 5
Bounds
  0 <= x <= 5
  y free
  z >= 2
General
  x y z
End